p cnf 516 1574
a 2 3 4 5 6 7 8 9 13 18 20 25 30 35 38 39 46 47 51 55 56 59 63 67 69 71 73 75 76 80 84 86 90 94 99 101 105 107 108 112 114 117 118 0
e 1 10 11 12 14 15 16 17 19 21 22 23 24 26 27 28 29 31 32 33 34 36 37 40 41 42 43 44 45 48 49 50 52 53 54 57 58 60 61 62 64 65 66 68 70 72 74 77 78 79 81 82 83 85 87 88 89 91 92 93 95 96 97 98 100 102 103 104 106 109 110 111 113 115 116 119 120 121 122 123 124 125 126 127 128 129 130 131 132 133 134 135 136 137 138 139 140 141 142 143 144 145 146 147 148 149 150 151 152 153 154 155 156 157 158 159 160 161 162 163 164 165 166 167 168 169 170 171 172 173 174 175 176 177 178 179 180 181 182 183 184 185 186 187 188 189 190 191 192 193 194 195 196 197 198 199 200 201 202 203 204 205 206 207 208 209 210 211 212 213 214 215 216 217 218 219 220 221 222 223 224 225 226 227 228 229 230 231 232 233 234 235 236 237 238 239 240 241 242 243 244 245 246 247 248 249 250 251 252 253 254 255 256 257 258 259 260 261 262 263 264 265 266 267 268 269 270 271 272 273 274 275 276 277 278 279 280 281 282 283 284 285 286 287 288 289 290 291 292 293 294 295 296 297 298 299 300 301 302 303 304 305 306 307 308 309 310 311 312 313 314 315 316 317 318 319 320 321 322 323 324 325 326 327 328 329 330 331 332 333 334 335 336 337 338 339 340 341 342 343 344 345 346 347 348 349 350 351 352 353 354 355 356 357 358 359 360 361 362 363 364 365 366 367 368 369 370 371 372 373 374 375 376 377 378 379 380 381 382 383 384 385 386 387 388 389 390 391 392 393 394 395 396 397 398 399 400 401 402 403 404 405 406 407 408 409 410 411 412 413 414 415 416 417 418 419 420 421 422 423 424 425 426 427 428 429 430 431 432 433 434 435 436 437 438 439 440 441 442 443 444 445 446 447 448 449 450 451 452 453 454 455 456 457 458 459 460 461 462 463 464 465 466 467 468 469 470 471 472 473 474 475 476 477 478 479 480 481 482 483 484 485 486 487 488 489 490 491 492 493 494 495 496 497 498 499 500 501 502 503 504 505 506 507 508 509 510 511 512 513 514 515 516 0
1 0
8 -10 0
9 -10 0
-8 -9 10 0
8 -11 0
-9 -11 0
-8 9 11 0
8 12 0
-10 12 0
-11 12 0
-8 10 11 -12 0
-13 14 0
13 14 0
7 -15 0
12 -15 0
14 -15 0
-7 -12 -14 15 0
-7 -16 0
12 -16 0
7 -12 16 0
-15 17 0
-16 17 0
15 16 -17 0
-18 19 0
18 19 0
-20 21 0
20 21 0
6 -22 0
17 -22 0
19 -22 0
21 -22 0
-6 -17 -19 -21 22 0
-6 -23 0
17 -23 0
19 -23 0
6 -17 -19 23 0
-22 24 0
-23 24 0
22 23 -24 0
25 26 0
-25 26 0
5 -27 0
24 -27 0
26 -27 0
-5 -24 -26 27 0
-5 -28 0
24 -28 0
5 -24 28 0
-27 29 0
-28 29 0
27 28 -29 0
30 31 0
-30 31 0
4 -32 0
29 -32 0
31 -32 0
-4 -29 -31 32 0
-4 -33 0
29 -33 0
4 -29 33 0
-32 34 0
-33 34 0
32 33 -34 0
35 36 0
-35 36 0
3 -37 0
34 -37 0
36 -37 0
-3 -34 -36 37 0
39 40 0
-39 40 0
38 -41 0
34 -41 0
40 -41 0
-38 -34 -40 41 0
-38 -42 0
34 -42 0
38 -34 42 0
-41 43 0
-42 43 0
41 42 -43 0
-3 -44 0
43 -44 0
3 -43 44 0
-37 45 0
-44 45 0
37 44 -45 0
46 -48 0
47 -48 0
-46 -47 48 0
46 -49 0
-47 -49 0
-46 47 49 0
-48 50 0
-49 50 0
48 49 -50 0
50 -52 0
51 -52 0
-50 -51 52 0
50 -53 0
-51 -53 0
-50 51 53 0
-52 54 0
-53 54 0
52 53 -54 0
54 -57 0
-55 -57 0
56 -57 0
-54 55 -56 57 0
54 -58 0
-55 -58 0
-56 -58 0
-54 55 56 58 0
54 -60 0
55 -60 0
59 -60 0
-54 -55 -59 60 0
54 -61 0
55 -61 0
-59 -61 0
-54 -55 59 61 0
-57 62 0
-58 62 0
-60 62 0
-61 62 0
57 58 60 61 -62 0
62 -64 0
63 -64 0
-62 -63 64 0
62 -65 0
-63 -65 0
-62 63 65 0
-64 66 0
-65 66 0
64 65 -66 0
66 -68 0
67 -68 0
-66 -67 68 0
66 -70 0
-67 -70 0
69 -70 0
-66 67 -69 70 0
66 -72 0
-67 -72 0
-69 -72 0
71 -72 0
-66 67 69 -71 72 0
66 -74 0
-67 -74 0
-69 -74 0
-71 -74 0
73 -74 0
-66 67 69 71 -73 74 0
66 -77 0
-67 -77 0
-69 -77 0
-71 -77 0
-73 -77 0
75 -77 0
76 -77 0
-66 67 69 71 73 -75 -76 77 0
66 -78 0
-67 -78 0
-69 -78 0
-71 -78 0
-73 -78 0
75 -78 0
-76 -78 0
-66 67 69 71 73 -75 76 78 0
-77 79 0
-78 79 0
77 78 -79 0
79 -81 0
80 -81 0
-79 -80 81 0
79 -82 0
-80 -82 0
-79 80 82 0
-81 83 0
-82 83 0
81 82 -83 0
83 -85 0
84 -85 0
-83 -84 85 0
66 -87 0
-67 -87 0
-69 -87 0
-71 -87 0
-73 -87 0
-75 -87 0
86 -87 0
-66 67 69 71 73 75 -86 87 0
66 -88 0
-67 -88 0
-69 -88 0
-71 -88 0
-73 -88 0
-75 -88 0
-86 -88 0
-66 67 69 71 73 75 86 88 0
-87 89 0
-88 89 0
87 88 -89 0
89 -91 0
90 -91 0
-89 -90 91 0
89 -92 0
-90 -92 0
-89 90 92 0
-91 93 0
-92 93 0
91 92 -93 0
93 -95 0
94 -95 0
-93 -94 95 0
83 -96 0
-84 -96 0
-83 84 96 0
93 -97 0
-94 -97 0
-93 94 97 0
-85 98 0
-95 98 0
-96 98 0
-97 98 0
85 95 96 97 -98 0
98 -100 0
-99 -100 0
-98 99 100 0
98 -102 0
99 -102 0
101 -102 0
-98 -99 -101 102 0
98 -103 0
99 -103 0
-101 -103 0
-98 -99 101 103 0
46 104 0
-68 104 0
-70 104 0
-72 104 0
-74 104 0
-100 104 0
-102 104 0
-103 104 0
-46 68 70 72 74 100 102 103 -104 0
-105 106 0
105 106 0
-108 109 0
108 109 0
107 -110 0
109 -110 0
-107 -109 110 0
107 111 0
-110 111 0
-107 110 -111 0
2 -113 0
45 -113 0
104 -113 0
106 -113 0
111 -113 0
112 -113 0
-2 -45 -104 -106 -111 -112 113 0
-2 -115 0
45 -115 0
104 -115 0
106 -115 0
111 -115 0
114 -115 0
2 -45 -104 -106 -111 -114 115 0
-113 116 0
-115 116 0
113 115 -116 0
-117 -119 0
118 -119 0
117 -118 119 0
-117 -120 0
-118 -120 0
117 118 120 0
-117 121 0
-119 121 0
-120 121 0
117 119 120 -121 0
116 -122 0
121 -122 0
-116 -121 122 0
-13 123 0
13 123 0
7 -124 0
123 -124 0
-7 -123 124 0
-124 125 0
7 125 0
124 -7 -125 0
125 -126 0
20 -126 0
-125 -20 126 0
125 -127 0
-20 -127 0
-125 20 127 0
-126 128 0
-127 128 0
126 127 -128 0
6 -129 0
128 -129 0
-6 -128 129 0
-6 -130 0
125 -130 0
6 -125 130 0
-129 131 0
-130 131 0
129 130 -131 0
131 -132 0
-25 -132 0
-131 25 132 0
131 -133 0
25 -133 0
-131 -25 133 0
-132 134 0
-133 134 0
132 133 -134 0
5 -135 0
134 -135 0
-5 -134 135 0
-5 -136 0
131 -136 0
5 -131 136 0
-135 137 0
-136 137 0
135 136 -137 0
137 -138 0
-30 -138 0
-137 30 138 0
137 -139 0
30 -139 0
-137 -30 139 0
-138 140 0
-139 140 0
138 139 -140 0
4 -141 0
140 -141 0
-4 -140 141 0
-4 -142 0
137 -142 0
4 -137 142 0
-141 143 0
-142 143 0
141 142 -143 0
143 -144 0
-35 -144 0
-143 35 144 0
143 -145 0
35 -145 0
-143 -35 145 0
-144 146 0
-145 146 0
144 145 -146 0
3 -147 0
146 -147 0
-3 -146 147 0
143 -148 0
-39 -148 0
-143 39 148 0
143 -149 0
39 -149 0
-143 -39 149 0
-148 150 0
-149 150 0
148 149 -150 0
38 -151 0
150 -151 0
-38 -150 151 0
-38 -152 0
143 -152 0
38 -143 152 0
-151 153 0
-152 153 0
151 152 -153 0
-3 -154 0
153 -154 0
3 -153 154 0
-147 155 0
-154 155 0
147 154 -155 0
155 -156 0
-46 -156 0
-155 46 156 0
155 -157 0
46 -157 0
47 -157 0
-155 -46 -47 157 0
155 -158 0
46 -158 0
-47 -158 0
-155 -46 47 158 0
-157 159 0
-158 159 0
157 158 -159 0
159 -160 0
50 -160 0
51 -160 0
-159 -50 -51 160 0
159 -161 0
50 -161 0
-51 -161 0
-159 -50 51 161 0
-160 162 0
-161 162 0
160 161 -162 0
162 -163 0
62 -163 0
63 -163 0
-162 -62 -63 163 0
162 -164 0
62 -164 0
-63 -164 0
-162 -62 63 164 0
-163 165 0
-164 165 0
163 164 -165 0
-68 166 0
-70 166 0
-72 166 0
-74 166 0
68 70 72 74 -166 0
165 -167 0
166 -167 0
-165 -166 167 0
165 -168 0
66 -168 0
-67 -168 0
-69 -168 0
-71 -168 0
-73 -168 0
-75 -168 0
86 -168 0
-165 -66 67 69 71 73 75 -86 168 0
165 -169 0
66 -169 0
-67 -169 0
-69 -169 0
-71 -169 0
-73 -169 0
-75 -169 0
-86 -169 0
-165 -66 67 69 71 73 75 86 169 0
-168 170 0
-169 170 0
168 169 -170 0
170 -171 0
89 -171 0
90 -171 0
-170 -89 -90 171 0
170 -172 0
89 -172 0
-90 -172 0
-170 -89 90 172 0
-171 173 0
-172 173 0
171 172 -173 0
173 -174 0
93 -174 0
94 -174 0
-173 -93 -94 174 0
173 -175 0
93 -175 0
-94 -175 0
-173 -93 94 175 0
165 -176 0
66 -176 0
-67 -176 0
-69 -176 0
-71 -176 0
-73 -176 0
75 -176 0
76 -176 0
-165 -66 67 69 71 73 -75 -76 176 0
165 -177 0
66 -177 0
-67 -177 0
-69 -177 0
-71 -177 0
-73 -177 0
75 -177 0
-76 -177 0
-165 -66 67 69 71 73 -75 76 177 0
-176 178 0
-177 178 0
176 177 -178 0
178 -179 0
79 -179 0
80 -179 0
-178 -79 -80 179 0
178 -180 0
79 -180 0
-80 -180 0
-178 -79 80 180 0
-179 181 0
-180 181 0
179 180 -181 0
181 -182 0
83 -182 0
84 -182 0
-181 -83 -84 182 0
181 -183 0
83 -183 0
-84 -183 0
-181 -83 84 183 0
-174 184 0
-175 184 0
-182 184 0
-183 184 0
174 175 182 183 -184 0
-102 185 0
-103 185 0
102 103 -185 0
-100 186 0
-185 186 0
100 185 -186 0
184 -187 0
186 -187 0
-184 -186 187 0
-156 188 0
-167 188 0
-187 188 0
156 167 187 -188 0
188 -189 0
107 -189 0
109 -189 0
-188 -107 -109 189 0
188 -190 0
-107 -190 0
-188 107 190 0
-189 191 0
-190 191 0
189 190 -191 0
191 -192 0
117 -192 0
-191 -117 192 0
-119 193 0
-120 193 0
119 120 -193 0
191 -194 0
193 -194 0
-191 -193 194 0
-192 195 0
-194 195 0
192 194 -195 0
-13 196 0
13 196 0
7 -197 0
196 -197 0
-7 -196 197 0
-197 198 0
7 198 0
197 -7 -198 0
198 -199 0
20 -199 0
-198 -20 199 0
198 -200 0
-20 -200 0
-198 20 200 0
-199 201 0
-200 201 0
199 200 -201 0
6 -202 0
201 -202 0
-6 -201 202 0
-6 -203 0
198 -203 0
6 -198 203 0
-202 204 0
-203 204 0
202 203 -204 0
204 -205 0
-25 -205 0
-204 25 205 0
204 -206 0
25 -206 0
-204 -25 206 0
-205 207 0
-206 207 0
205 206 -207 0
5 -208 0
207 -208 0
-5 -207 208 0
-5 -209 0
204 -209 0
5 -204 209 0
-208 210 0
-209 210 0
208 209 -210 0
210 -211 0
-30 -211 0
-210 30 211 0
210 -212 0
30 -212 0
-210 -30 212 0
-211 213 0
-212 213 0
211 212 -213 0
4 -214 0
213 -214 0
-4 -213 214 0
-4 -215 0
210 -215 0
4 -210 215 0
-214 216 0
-215 216 0
214 215 -216 0
216 -217 0
-35 -217 0
-216 35 217 0
216 -218 0
35 -218 0
-216 -35 218 0
-217 219 0
-218 219 0
217 218 -219 0
3 -220 0
219 -220 0
-3 -219 220 0
216 -221 0
-39 -221 0
-216 39 221 0
216 -222 0
39 -222 0
-216 -39 222 0
-221 223 0
-222 223 0
221 222 -223 0
38 -224 0
223 -224 0
-38 -223 224 0
-38 -225 0
216 -225 0
38 -216 225 0
-224 226 0
-225 226 0
224 225 -226 0
-3 -227 0
226 -227 0
3 -226 227 0
-220 228 0
-227 228 0
220 227 -228 0
228 -229 0
-46 -229 0
-228 46 229 0
228 -230 0
46 -230 0
47 -230 0
-228 -46 -47 230 0
228 -231 0
46 -231 0
-47 -231 0
-228 -46 47 231 0
-230 232 0
-231 232 0
230 231 -232 0
232 -233 0
50 -233 0
51 -233 0
-232 -50 -51 233 0
232 -234 0
50 -234 0
-51 -234 0
-232 -50 51 234 0
-233 235 0
-234 235 0
233 234 -235 0
235 -236 0
62 -236 0
63 -236 0
-235 -62 -63 236 0
235 -237 0
62 -237 0
-63 -237 0
-235 -62 63 237 0
-236 238 0
-237 238 0
236 237 -238 0
-68 239 0
-70 239 0
-72 239 0
-74 239 0
68 70 72 74 -239 0
238 -240 0
239 -240 0
-238 -239 240 0
238 -241 0
66 -241 0
-67 -241 0
-69 -241 0
-71 -241 0
-73 -241 0
-75 -241 0
86 -241 0
-238 -66 67 69 71 73 75 -86 241 0
238 -242 0
66 -242 0
-67 -242 0
-69 -242 0
-71 -242 0
-73 -242 0
-75 -242 0
-86 -242 0
-238 -66 67 69 71 73 75 86 242 0
-241 243 0
-242 243 0
241 242 -243 0
243 -244 0
89 -244 0
90 -244 0
-243 -89 -90 244 0
243 -245 0
89 -245 0
-90 -245 0
-243 -89 90 245 0
-244 246 0
-245 246 0
244 245 -246 0
246 -247 0
93 -247 0
94 -247 0
-246 -93 -94 247 0
246 -248 0
93 -248 0
-94 -248 0
-246 -93 94 248 0
238 -249 0
66 -249 0
-67 -249 0
-69 -249 0
-71 -249 0
-73 -249 0
75 -249 0
76 -249 0
-238 -66 67 69 71 73 -75 -76 249 0
238 -250 0
66 -250 0
-67 -250 0
-69 -250 0
-71 -250 0
-73 -250 0
75 -250 0
-76 -250 0
-238 -66 67 69 71 73 -75 76 250 0
-249 251 0
-250 251 0
249 250 -251 0
251 -252 0
79 -252 0
80 -252 0
-251 -79 -80 252 0
251 -253 0
79 -253 0
-80 -253 0
-251 -79 80 253 0
-252 254 0
-253 254 0
252 253 -254 0
254 -255 0
83 -255 0
84 -255 0
-254 -83 -84 255 0
254 -256 0
83 -256 0
-84 -256 0
-254 -83 84 256 0
-247 257 0
-248 257 0
-255 257 0
-256 257 0
247 248 255 256 -257 0
-100 258 0
-185 258 0
100 185 -258 0
257 -259 0
258 -259 0
-257 -258 259 0
-229 260 0
-240 260 0
-259 260 0
229 240 259 -260 0
260 -261 0
107 -261 0
109 -261 0
-260 -107 -109 261 0
260 -262 0
-107 -262 0
-260 107 262 0
-261 263 0
-262 263 0
261 262 -263 0
263 -264 0
117 -264 0
-263 -117 264 0
263 -265 0
193 -265 0
-263 -193 265 0
-264 266 0
-265 266 0
264 265 -266 0
272 -274 0
273 -274 0
-272 -273 274 0
272 -275 0
-273 -275 0
-272 273 275 0
272 276 0
-274 276 0
-275 276 0
-272 274 275 -276 0
-277 278 0
277 278 0
271 -279 0
276 -279 0
278 -279 0
-271 -276 -278 279 0
-271 -280 0
276 -280 0
271 -276 280 0
-279 281 0
-280 281 0
279 280 -281 0
-282 283 0
282 283 0
-284 285 0
284 285 0
270 -286 0
281 -286 0
283 -286 0
285 -286 0
-270 -281 -283 -285 286 0
-270 -287 0
281 -287 0
283 -287 0
270 -281 -283 287 0
-286 288 0
-287 288 0
286 287 -288 0
289 290 0
-289 290 0
269 -291 0
288 -291 0
290 -291 0
-269 -288 -290 291 0
-269 -292 0
288 -292 0
269 -288 292 0
-291 293 0
-292 293 0
291 292 -293 0
294 295 0
-294 295 0
268 -296 0
293 -296 0
295 -296 0
-268 -293 -295 296 0
-268 -297 0
293 -297 0
268 -293 297 0
-296 298 0
-297 298 0
296 297 -298 0
299 300 0
-299 300 0
267 -301 0
298 -301 0
300 -301 0
-267 -298 -300 301 0
303 304 0
-303 304 0
302 -305 0
298 -305 0
304 -305 0
-302 -298 -304 305 0
-302 -306 0
298 -306 0
302 -298 306 0
-305 307 0
-306 307 0
305 306 -307 0
-267 -308 0
307 -308 0
267 -307 308 0
-301 309 0
-308 309 0
301 308 -309 0
310 -312 0
311 -312 0
-310 -311 312 0
310 -313 0
-311 -313 0
-310 311 313 0
-312 314 0
-313 314 0
312 313 -314 0
314 -316 0
315 -316 0
-314 -315 316 0
314 -317 0
-315 -317 0
-314 315 317 0
-316 318 0
-317 318 0
316 317 -318 0
318 -321 0
-319 -321 0
320 -321 0
-318 319 -320 321 0
318 -322 0
-319 -322 0
-320 -322 0
-318 319 320 322 0
318 -324 0
319 -324 0
323 -324 0
-318 -319 -323 324 0
318 -325 0
319 -325 0
-323 -325 0
-318 -319 323 325 0
-321 326 0
-322 326 0
-324 326 0
-325 326 0
321 322 324 325 -326 0
326 -328 0
327 -328 0
-326 -327 328 0
326 -329 0
-327 -329 0
-326 327 329 0
-328 330 0
-329 330 0
328 329 -330 0
330 -332 0
331 -332 0
-330 -331 332 0
330 -334 0
-331 -334 0
333 -334 0
-330 331 -333 334 0
330 -336 0
-331 -336 0
-333 -336 0
335 -336 0
-330 331 333 -335 336 0
330 -338 0
-331 -338 0
-333 -338 0
-335 -338 0
337 -338 0
-330 331 333 335 -337 338 0
330 -341 0
-331 -341 0
-333 -341 0
-335 -341 0
-337 -341 0
339 -341 0
340 -341 0
-330 331 333 335 337 -339 -340 341 0
330 -342 0
-331 -342 0
-333 -342 0
-335 -342 0
-337 -342 0
339 -342 0
-340 -342 0
-330 331 333 335 337 -339 340 342 0
-341 343 0
-342 343 0
341 342 -343 0
343 -345 0
344 -345 0
-343 -344 345 0
343 -346 0
-344 -346 0
-343 344 346 0
-345 347 0
-346 347 0
345 346 -347 0
347 -349 0
348 -349 0
-347 -348 349 0
330 -351 0
-331 -351 0
-333 -351 0
-335 -351 0
-337 -351 0
-339 -351 0
350 -351 0
-330 331 333 335 337 339 -350 351 0
330 -352 0
-331 -352 0
-333 -352 0
-335 -352 0
-337 -352 0
-339 -352 0
-350 -352 0
-330 331 333 335 337 339 350 352 0
-351 353 0
-352 353 0
351 352 -353 0
353 -355 0
354 -355 0
-353 -354 355 0
353 -356 0
-354 -356 0
-353 354 356 0
-355 357 0
-356 357 0
355 356 -357 0
357 -359 0
358 -359 0
-357 -358 359 0
347 -360 0
-348 -360 0
-347 348 360 0
357 -361 0
-358 -361 0
-357 358 361 0
-349 362 0
-359 362 0
-360 362 0
-361 362 0
349 359 360 361 -362 0
362 -364 0
-363 -364 0
-362 363 364 0
362 -366 0
363 -366 0
365 -366 0
-362 -363 -365 366 0
362 -367 0
363 -367 0
-365 -367 0
-362 -363 365 367 0
310 368 0
-332 368 0
-334 368 0
-336 368 0
-338 368 0
-364 368 0
-366 368 0
-367 368 0
-310 332 334 336 338 364 366 367 -368 0
-369 370 0
369 370 0
-372 373 0
372 373 0
371 -374 0
373 -374 0
-371 -373 374 0
371 375 0
-374 375 0
-371 374 -375 0
309 -376 0
368 -376 0
370 -376 0
375 -376 0
-309 -368 -370 -375 376 0
-277 377 0
277 377 0
271 -378 0
377 -378 0
-271 -377 378 0
-378 379 0
271 379 0
378 -271 -379 0
379 -380 0
284 -380 0
-379 -284 380 0
379 -381 0
-284 -381 0
-379 284 381 0
-380 382 0
-381 382 0
380 381 -382 0
270 -383 0
382 -383 0
-270 -382 383 0
-270 -384 0
379 -384 0
270 -379 384 0
-383 385 0
-384 385 0
383 384 -385 0
385 -386 0
-289 -386 0
-385 289 386 0
385 -387 0
289 -387 0
-385 -289 387 0
-386 388 0
-387 388 0
386 387 -388 0
269 -389 0
388 -389 0
-269 -388 389 0
-269 -390 0
385 -390 0
269 -385 390 0
-389 391 0
-390 391 0
389 390 -391 0
391 -392 0
-294 -392 0
-391 294 392 0
391 -393 0
294 -393 0
-391 -294 393 0
-392 394 0
-393 394 0
392 393 -394 0
268 -395 0
394 -395 0
-268 -394 395 0
-268 -396 0
391 -396 0
268 -391 396 0
-395 397 0
-396 397 0
395 396 -397 0
397 -398 0
-299 -398 0
-397 299 398 0
397 -399 0
299 -399 0
-397 -299 399 0
-398 400 0
-399 400 0
398 399 -400 0
267 -401 0
400 -401 0
-267 -400 401 0
397 -402 0
-303 -402 0
-397 303 402 0
397 -403 0
303 -403 0
-397 -303 403 0
-402 404 0
-403 404 0
402 403 -404 0
302 -405 0
404 -405 0
-302 -404 405 0
-302 -406 0
397 -406 0
302 -397 406 0
-405 407 0
-406 407 0
405 406 -407 0
-267 -408 0
407 -408 0
267 -407 408 0
-401 409 0
-408 409 0
401 408 -409 0
409 -410 0
-310 -410 0
-409 310 410 0
409 -411 0
310 -411 0
311 -411 0
-409 -310 -311 411 0
409 -412 0
310 -412 0
-311 -412 0
-409 -310 311 412 0
-411 413 0
-412 413 0
411 412 -413 0
413 -414 0
314 -414 0
315 -414 0
-413 -314 -315 414 0
413 -415 0
314 -415 0
-315 -415 0
-413 -314 315 415 0
-414 416 0
-415 416 0
414 415 -416 0
416 -417 0
326 -417 0
327 -417 0
-416 -326 -327 417 0
416 -418 0
326 -418 0
-327 -418 0
-416 -326 327 418 0
-417 419 0
-418 419 0
417 418 -419 0
-332 420 0
-334 420 0
-336 420 0
-338 420 0
332 334 336 338 -420 0
419 -421 0
420 -421 0
-419 -420 421 0
419 -422 0
330 -422 0
-331 -422 0
-333 -422 0
-335 -422 0
-337 -422 0
-339 -422 0
350 -422 0
-419 -330 331 333 335 337 339 -350 422 0
419 -423 0
330 -423 0
-331 -423 0
-333 -423 0
-335 -423 0
-337 -423 0
-339 -423 0
-350 -423 0
-419 -330 331 333 335 337 339 350 423 0
-422 424 0
-423 424 0
422 423 -424 0
424 -425 0
353 -425 0
354 -425 0
-424 -353 -354 425 0
424 -426 0
353 -426 0
-354 -426 0
-424 -353 354 426 0
-425 427 0
-426 427 0
425 426 -427 0
427 -428 0
357 -428 0
358 -428 0
-427 -357 -358 428 0
427 -429 0
357 -429 0
-358 -429 0
-427 -357 358 429 0
419 -430 0
330 -430 0
-331 -430 0
-333 -430 0
-335 -430 0
-337 -430 0
339 -430 0
340 -430 0
-419 -330 331 333 335 337 -339 -340 430 0
419 -431 0
330 -431 0
-331 -431 0
-333 -431 0
-335 -431 0
-337 -431 0
339 -431 0
-340 -431 0
-419 -330 331 333 335 337 -339 340 431 0
-430 432 0
-431 432 0
430 431 -432 0
432 -433 0
343 -433 0
344 -433 0
-432 -343 -344 433 0
432 -434 0
343 -434 0
-344 -434 0
-432 -343 344 434 0
-433 435 0
-434 435 0
433 434 -435 0
435 -436 0
347 -436 0
348 -436 0
-435 -347 -348 436 0
435 -437 0
347 -437 0
-348 -437 0
-435 -347 348 437 0
-428 438 0
-429 438 0
-436 438 0
-437 438 0
428 429 436 437 -438 0
-366 439 0
-367 439 0
366 367 -439 0
-364 440 0
-439 440 0
364 439 -440 0
438 -441 0
440 -441 0
-438 -440 441 0
-410 442 0
-421 442 0
-441 442 0
410 421 441 -442 0
442 -443 0
371 -443 0
373 -443 0
-442 -371 -373 443 0
442 -444 0
-371 -444 0
-442 371 444 0
-443 445 0
-444 445 0
443 444 -445 0
-277 446 0
277 446 0
271 -447 0
446 -447 0
-271 -446 447 0
-447 448 0
271 448 0
447 -271 -448 0
448 -449 0
284 -449 0
-448 -284 449 0
448 -450 0
-284 -450 0
-448 284 450 0
-449 451 0
-450 451 0
449 450 -451 0
270 -452 0
451 -452 0
-270 -451 452 0
-270 -453 0
448 -453 0
270 -448 453 0
-452 454 0
-453 454 0
452 453 -454 0
454 -455 0
-289 -455 0
-454 289 455 0
454 -456 0
289 -456 0
-454 -289 456 0
-455 457 0
-456 457 0
455 456 -457 0
269 -458 0
457 -458 0
-269 -457 458 0
-269 -459 0
454 -459 0
269 -454 459 0
-458 460 0
-459 460 0
458 459 -460 0
460 -461 0
-294 -461 0
-460 294 461 0
460 -462 0
294 -462 0
-460 -294 462 0
-461 463 0
-462 463 0
461 462 -463 0
268 -464 0
463 -464 0
-268 -463 464 0
-268 -465 0
460 -465 0
268 -460 465 0
-464 466 0
-465 466 0
464 465 -466 0
466 -467 0
-299 -467 0
-466 299 467 0
466 -468 0
299 -468 0
-466 -299 468 0
-467 469 0
-468 469 0
467 468 -469 0
267 -470 0
469 -470 0
-267 -469 470 0
466 -471 0
-303 -471 0
-466 303 471 0
466 -472 0
303 -472 0
-466 -303 472 0
-471 473 0
-472 473 0
471 472 -473 0
302 -474 0
473 -474 0
-302 -473 474 0
-302 -475 0
466 -475 0
302 -466 475 0
-474 476 0
-475 476 0
474 475 -476 0
-267 -477 0
476 -477 0
267 -476 477 0
-470 478 0
-477 478 0
470 477 -478 0
478 -479 0
-310 -479 0
-478 310 479 0
478 -480 0
310 -480 0
311 -480 0
-478 -310 -311 480 0
478 -481 0
310 -481 0
-311 -481 0
-478 -310 311 481 0
-480 482 0
-481 482 0
480 481 -482 0
482 -483 0
314 -483 0
315 -483 0
-482 -314 -315 483 0
482 -484 0
314 -484 0
-315 -484 0
-482 -314 315 484 0
-483 485 0
-484 485 0
483 484 -485 0
485 -486 0
326 -486 0
327 -486 0
-485 -326 -327 486 0
485 -487 0
326 -487 0
-327 -487 0
-485 -326 327 487 0
-486 488 0
-487 488 0
486 487 -488 0
-332 489 0
-334 489 0
-336 489 0
-338 489 0
332 334 336 338 -489 0
488 -490 0
489 -490 0
-488 -489 490 0
488 -491 0
330 -491 0
-331 -491 0
-333 -491 0
-335 -491 0
-337 -491 0
-339 -491 0
350 -491 0
-488 -330 331 333 335 337 339 -350 491 0
488 -492 0
330 -492 0
-331 -492 0
-333 -492 0
-335 -492 0
-337 -492 0
-339 -492 0
-350 -492 0
-488 -330 331 333 335 337 339 350 492 0
-491 493 0
-492 493 0
491 492 -493 0
493 -494 0
353 -494 0
354 -494 0
-493 -353 -354 494 0
493 -495 0
353 -495 0
-354 -495 0
-493 -353 354 495 0
-494 496 0
-495 496 0
494 495 -496 0
496 -497 0
357 -497 0
358 -497 0
-496 -357 -358 497 0
496 -498 0
357 -498 0
-358 -498 0
-496 -357 358 498 0
488 -499 0
330 -499 0
-331 -499 0
-333 -499 0
-335 -499 0
-337 -499 0
339 -499 0
340 -499 0
-488 -330 331 333 335 337 -339 -340 499 0
488 -500 0
330 -500 0
-331 -500 0
-333 -500 0
-335 -500 0
-337 -500 0
339 -500 0
-340 -500 0
-488 -330 331 333 335 337 -339 340 500 0
-499 501 0
-500 501 0
499 500 -501 0
501 -502 0
343 -502 0
344 -502 0
-501 -343 -344 502 0
501 -503 0
343 -503 0
-344 -503 0
-501 -343 344 503 0
-502 504 0
-503 504 0
502 503 -504 0
504 -505 0
347 -505 0
348 -505 0
-504 -347 -348 505 0
504 -506 0
347 -506 0
-348 -506 0
-504 -347 348 506 0
-497 507 0
-498 507 0
-505 507 0
-506 507 0
497 498 505 506 -507 0
-364 508 0
-439 508 0
364 439 -508 0
507 -509 0
508 -509 0
-507 -508 509 0
-479 510 0
-490 510 0
-509 510 0
479 490 509 -510 0
510 -511 0
371 -511 0
373 -511 0
-510 -371 -373 511 0
510 -512 0
-371 -512 0
-510 371 512 0
-511 513 0
-512 513 0
511 512 -513 0
-445 -195 -514 0
445 195 -514 0
-445 195 514 0
445 -195 514 0
-513 -266 -515 0
513 266 -515 0
-513 266 515 0
513 -266 515 0
-514 -516 0
-515 -516 0
376 -516 0
514 515 -376 516 0
-122 516 0
